NAME /Users/henri/Research/solvers/instances/idol-instances/robust/collection/cbp_Subramanyam_et_al_2020/CapBud_N15_9/models/uncertain_technology_matrix/
ROWS
 N  OBJ
 L  capacity
 L  c_1585
 L  c_1586
 L  c_1587
 L  c_1588
 L  c_1589
 L  c_1590
 L  c_1591
 L  c_1592
 L  c_1593
 L  c_1594
 L  c_1595
 L  c_1596
 L  c_1597
 L  c_1598
 L  c_1599
COLUMNS
    MARKER    'MARKER'                 'INTORG'
    x_0        OBJ        -1.95857
    x_0        c_1585     1
    x_0        capacity   0.391713
    x_1        OBJ        -8.15667
    x_1        c_1586     1
    x_1        capacity   1.63133
    x_2        OBJ        -8.58987
    x_2        c_1587     1
    x_2        capacity   1.71797
    x_3        OBJ        -6.57096
    x_3        c_1588     1
    x_3        capacity   1.31419
    x_4        OBJ        -5.1952
    x_4        c_1589     1
    x_4        capacity   1.03904
    x_5        OBJ        -6.2847
    x_5        c_1590     1
    x_5        capacity   1.25694
    x_6        OBJ        -6.36839
    x_6        c_1591     1
    x_6        capacity   1.27368
    x_7        OBJ        -8.48953
    x_7        c_1592     1
    x_7        capacity   1.69791
    x_8        OBJ        -2.29336
    x_8        c_1593     1
    x_8        capacity   0.458673
    x_9        OBJ        -9.17005
    x_9        c_1594     1
    x_9        capacity   1.83401
    x_10       OBJ        -9.49881
    x_10       c_1595     1
    x_10       capacity   1.89976
    x_11       OBJ        -2.20049
    x_11       c_1596     1
    x_11       capacity   0.440098
    x_12       OBJ        -1.05273
    x_12       c_1597     1
    x_12       capacity   0.210547
    x_13       OBJ        -6.73592
    x_13       c_1598     1
    x_13       capacity   1.34718
    x_14       OBJ        -1.12931
    x_14       c_1599     1
    x_14       capacity   0.225863
    y_0        OBJ        -1.56685
    y_0        c_1585     1
    y_0        capacity   0.391713
    y_1        OBJ        -6.52533
    y_1        c_1586     1
    y_1        capacity   1.63133
    y_2        OBJ        -6.87189
    y_2        c_1587     1
    y_2        capacity   1.71797
    y_3        OBJ        -5.25677
    y_3        c_1588     1
    y_3        capacity   1.31419
    y_4        OBJ        -4.15616
    y_4        c_1589     1
    y_4        capacity   1.03904
    y_5        OBJ        -5.02776
    y_5        c_1590     1
    y_5        capacity   1.25694
    y_6        OBJ        -5.09471
    y_6        c_1591     1
    y_6        capacity   1.27368
    y_7        OBJ        -6.79162
    y_7        c_1592     1
    y_7        capacity   1.69791
    y_8        OBJ        -1.83469
    y_8        c_1593     1
    y_8        capacity   0.458673
    y_9        OBJ        -7.33604
    y_9        c_1594     1
    y_9        capacity   1.83401
    y_10       OBJ        -7.59905
    y_10       c_1595     1
    y_10       capacity   1.89976
    y_11       OBJ        -1.76039
    y_11       c_1596     1
    y_11       capacity   0.440098
    y_12       OBJ        -0.842188
    y_12       c_1597     1
    y_12       capacity   0.210547
    y_13       OBJ        -5.38874
    y_13       c_1598     1
    y_13       capacity   1.34718
    y_14       OBJ        -0.903452
    y_14       c_1599     1
    y_14       capacity   0.225863
    MARKER    'MARKER'                 'INTEND'
RHS
    RHS       capacity   41.8473
    RHS       c_1585     1
    RHS       c_1586     1
    RHS       c_1587     1
    RHS       c_1588     1
    RHS       c_1589     1
    RHS       c_1590     1
    RHS       c_1591     1
    RHS       c_1592     1
    RHS       c_1593     1
    RHS       c_1594     1
    RHS       c_1595     1
    RHS       c_1596     1
    RHS       c_1597     1
    RHS       c_1598     1
    RHS       c_1599     1
BOUNDS
 LI BND       x_0        0
 UI BND       x_0        1
 LI BND       x_1        0
 UI BND       x_1        1
 LI BND       x_2        0
 UI BND       x_2        1
 LI BND       x_3        0
 UI BND       x_3        1
 LI BND       x_4        0
 UI BND       x_4        1
 LI BND       x_5        0
 UI BND       x_5        1
 LI BND       x_6        0
 UI BND       x_6        1
 LI BND       x_7        0
 UI BND       x_7        1
 LI BND       x_8        0
 UI BND       x_8        1
 LI BND       x_9        0
 UI BND       x_9        1
 LI BND       x_10       0
 UI BND       x_10       1
 LI BND       x_11       0
 UI BND       x_11       1
 LI BND       x_12       0
 UI BND       x_12       1
 LI BND       x_13       0
 UI BND       x_13       1
 LI BND       x_14       0
 UI BND       x_14       1
 LI BND       y_0        0
 UI BND       y_0        1
 LI BND       y_1        0
 UI BND       y_1        1
 LI BND       y_2        0
 UI BND       y_2        1
 LI BND       y_3        0
 UI BND       y_3        1
 LI BND       y_4        0
 UI BND       y_4        1
 LI BND       y_5        0
 UI BND       y_5        1
 LI BND       y_6        0
 UI BND       y_6        1
 LI BND       y_7        0
 UI BND       y_7        1
 LI BND       y_8        0
 UI BND       y_8        1
 LI BND       y_9        0
 UI BND       y_9        1
 LI BND       y_10       0
 UI BND       y_10       1
 LI BND       y_11       0
 UI BND       y_11       1
 LI BND       y_12       0
 UI BND       y_12       1
 LI BND       y_13       0
 UI BND       y_13       1
 LI BND       y_14       0
 UI BND       y_14       1
ENDATA
